p cnf 996 561
124 0
148 0
157 0
166 0
182 0
259 0
275 0
319 0
354 0
456 0
472 0
484 0
569 0
578 0
644 0
661 0
685 0
718 0
721 0
814 0
827 0
881 0
892 0
912 0
943 0
976 0
-121 0
-122 0
-123 0
-125 0
-126 0
-127 0
-128 0
-129 0
-141 0
-142 0
-143 0
-144 0
-145 0
-146 0
-147 0
-149 0
-151 0
-152 0
-153 0
-154 0
-155 0
-156 0
-158 0
-159 0
-161 0
-162 0
-163 0
-164 0
-165 0
-167 0
-168 0
-169 0
-181 0
-183 0
-184 0
-185 0
-186 0
-187 0
-188 0
-189 0
-251 0
-252 0
-253 0
-254 0
-255 0
-256 0
-257 0
-258 0
-271 0
-272 0
-273 0
-274 0
-276 0
-277 0
-278 0
-279 0
-311 0
-312 0
-313 0
-314 0
-315 0
-316 0
-317 0
-318 0
-351 0
-352 0
-353 0
-355 0
-356 0
-357 0
-358 0
-359 0
-451 0
-452 0
-453 0
-454 0
-455 0
-457 0
-458 0
-459 0
-471 0
-473 0
-474 0
-475 0
-476 0
-477 0
-478 0
-479 0
-481 0
-482 0
-483 0
-485 0
-486 0
-487 0
-488 0
-489 0
-561 0
-562 0
-563 0
-564 0
-565 0
-566 0
-567 0
-568 0
-571 0
-572 0
-573 0
-574 0
-575 0
-576 0
-577 0
-579 0
-641 0
-642 0
-643 0
-645 0
-646 0
-647 0
-648 0
-649 0
-662 0
-663 0
-664 0
-665 0
-666 0
-667 0
-668 0
-669 0
-681 0
-682 0
-683 0
-684 0
-686 0
-687 0
-688 0
-689 0
-711 0
-712 0
-713 0
-714 0
-715 0
-716 0
-717 0
-719 0
-722 0
-723 0
-724 0
-725 0
-726 0
-727 0
-728 0
-729 0
-811 0
-812 0
-813 0
-815 0
-816 0
-817 0
-818 0
-819 0
-821 0
-822 0
-823 0
-824 0
-825 0
-826 0
-828 0
-829 0
-882 0
-883 0
-884 0
-885 0
-886 0
-887 0
-888 0
-889 0
-891 0
-893 0
-894 0
-895 0
-896 0
-897 0
-898 0
-899 0
-911 0
-913 0
-914 0
-915 0
-916 0
-917 0
-918 0
-919 0
-941 0
-942 0
-944 0
-945 0
-946 0
-947 0
-948 0
-949 0
-971 0
-972 0
-973 0
-974 0
-975 0
-977 0
-978 0
-979 0
-114 0
-134 0
-214 0
-224 0
-234 0
-324 0
-334 0
-119 0
-139 0
-219 0
-229 0
-239 0
-329 0
-339 0
-244 0
-264 0
-344 0
-364 0
-246 0
-266 0
-346 0
-366 0
-247 0
-267 0
-347 0
-367 0
-248 0
-268 0
-348 0
-368 0
-249 0
-269 0
-349 0
-369 0
-172 0
-192 0
-282 0
-292 0
-372 0
-382 0
-392 0
-175 0
-195 0
-285 0
-295 0
-375 0
-385 0
-395 0
-441 0
-461 0
-541 0
-551 0
-651 0
-444 0
-464 0
-544 0
-554 0
-654 0
-446 0
-466 0
-546 0
-556 0
-656 0
-449 0
-469 0
-549 0
-559 0
-659 0
-492 0
-582 0
-592 0
-672 0
-692 0
-494 0
-584 0
-594 0
-674 0
-694 0
-495 0
-585 0
-595 0
-675 0
-695 0
-498 0
-588 0
-598 0
-678 0
-698 0
-731 0
-831 0
-921 0
-931 0
-732 0
-832 0
-922 0
-932 0
-734 0
-834 0
-924 0
-934 0
-737 0
-837 0
-927 0
-937 0
-738 0
-838 0
-928 0
-938 0
-743 0
-753 0
-763 0
-843 0
-853 0
-863 0
-953 0
-963 0
-771 0
-781 0
-791 0
-871 0
-981 0
-991 0
-772 0
-782 0
-792 0
-872 0
-982 0
-992 0
-776 0
-786 0
-796 0
-876 0
-986 0
-996 0
-112 0
-132 0
-174 0
-194 0
-116 0
-136 0
-176 0
-196 0
-117 0
-137 0
-177 0
-197 0
-118 0
-138 0
-178 0
-198 0
-215 0
-225 0
-235 0
-245 0
-265 0
-289 0
-299 0
-374 0
-384 0
-394 0
-379 0
-389 0
-399 0
-412 0
-422 0
-432 0
-442 0
-462 0
-414 0
-424 0
-434 0
-416 0
-426 0
-436 0
-496 0
-518 0
-528 0
-538 0
-548 0
-558 0
-519 0
-529 0
-539 0
-589 0
-599 0
-611 0
-621 0
-631 0
-671 0
-691 0
-614 0
-624 0
-634 0
-615 0
-625 0
-635 0
-655 0
-741 0
-751 0
-761 0
-748 0
-758 0
-768 0
-778 0
-788 0
-798 0
-841 0
-851 0
-861 0
-842 0
-852 0
-862 0
-844 0
-854 0
-864 0
-874 0
-847 0
-857 0
-867 0
-877 0
-952 0
-962 0
-923 0
-933 0
-983 0
-993 0
-926 0
-936 0
-956 0
-966 0
-212 0
-512 0
-612 0
-514 0
-218 0
-418 0
-618 0
-419 0
-619 0
-221 0
-321 0
-421 0
-521 0
-524 0
-227 0
-327 0
-427 0
-527 0
-627 0
-243 0
-343 0
-443 0
-543 0
-744 0
-448 0
-848 0
-754 0
-954 0
-756 0
-856 0
-557 0
-657 0
-757 0
-957 0
-759 0
-859 0
-959 0
-261 0
-361 0
-961 0
-766 0
-866 0
-769 0
-869 0
-969 0
-775 0
-875 0
-376 0
-676 0
-378 0
-878 0
-281 0
-381 0
-581 0
-284 0
-784 0
-984 0
-785 0
-985 0
294 0
534 0
951 0
774 0
-291 0
-293 0
-296 0
-297 0
-298 0
-531 0
-532 0
-533 0
-535 0
-536 0
-537 0
-773 0
-777 0
-779 0
-955 0
-958 0
-794 0
-994 0
-764 0
964 0
-965 0
-967 0
-968 0
191 0
-193 0
-199 0
-171 0
-371 0
-391 0
-111 0
-131 0
-491 0
-591 0
179 0